53 54 55 56 57 58 48 46 47 59 60 80 79 81 82 83 84 85 86 106 107 102 101 100 103 88 87 104 105 108 109 110 112 114 113 111 144 143 142 141 140 139 138 137 136 135 131 115 132 133 134 130 129 128 127 126 125 124 123 122 121 120 119 118 116 117 91 92 74 75 76 73 94 93 95 96 97 98 99 90 89 78 77 67 66 64 62 61 63 65 68 69 70 72 71 45 44 43 14 13 12 11 10 9 7 8 19 20 18 17 41 42 16 15 21 40 39 38 37 23 22 24 25 36 35 27 26 5 6 4 3 1 2 28 29 30 34 32 31 33 49 50 51 52 72400 
56 55 54 53 52 50 49 112 113 114 111 110 86 85 88 87 89 90 98 75 76 77 78 73 74 92 91 93 94 96 97 95 99 100 102 115 131 132 133 136 135 139 138 141 143 144 142 140 137 134 125 123 119 118 117 116 120 121 122 124 126 128 130 129 127 101 103 104 105 107 106 108 109 82 81 79 80 83 84 58 51 33 32 31 34 30 29 2 3 4 6 5 1 28 27 26 35 36 25 24 22 23 37 38 39 40 20 19 8 7 9 11 12 10 17 18 21 41 42 16 15 13 14 43 44 45 71 72 70 69 68 67 65 66 64 63 62 61 46 47 48 59 60 57 90200 
104 100 101 102 103 88 87 85 84 83 82 81 80 79 60 59 48 46 47 58 57 56 55 54 53 52 51 50 49 33 31 32 34 30 29 3 4 5 6 1 2 28 35 36 24 25 26 27 22 23 38 40 39 37 21 18 41 42 15 16 17 20 19 8 7 9 10 11 12 13 14 43 44 45 71 72 70 68 64 63 62 61 65 66 67 69 73 74 75 76 77 78 89 90 99 98 97 96 95 94 93 91 92 117 116 118 119 120 121 122 123 124 125 126 127 128 129 130 134 133 115 131 132 135 136 137 138 139 140 141 142 143 144 111 114 113 112 110 86 109 108 107 106 105 72600 

